1308
500000
333224
333224
333224
333224
333224
333224
333224
333224
333224
333224
333224
333224
333224
333224
333224
331392
331392
331392
331392
331392
331392
331392
331392
331392
331392
331392
331392
331392
331392
331392
331392
331392
331392
331392
330724
330724
330724
330724
330724
330724
330724
330724
330724
330724
330724
330724
330724
330724
330724
330724
330724
330724
330724
330724
326787
326787
324694
324694
324694
324694
323905
323905
323905
323905
323905
323905
323905
323905
323905
323905
323905
323905
323905
323905
323905
323905
323905
320021
320021
320021
320021
320021
320021
320021
320021
320021
320021
320021
320021
320021
320021
320021
318805
318805
318805
318805
318805
318805
318805
318805
314257
314257
314257
314257
314257
314257
314257
314257
314257
314257
314257
314257
314257
314257
314257
314257
313531
313531
313531
313531
313531
313531
313531
313531
313531
313531
313531
313531
313531
313531
313531
313531
313531
313531
312996
312996
312996
312996
312996
312996
312996
312996
312996
312996
312996
312996
312996
312996
312996
312996
312996
312996
312996
312971
312971
312971
312971
312971
312971
312971
312971
312971
312971
312971
312971
312971
312971
312971
312971
310987
310987
310987
310987
310987
310987
310987
310987
310987
310987
310987
310978
310978
310978
310978
310978
310978
310978
310978
310978
310978
310978
310978
310978
310978
310978
310978
310978
310978
310978
309965
309965
309965
309965
309965
307263
307263
304890
304890
296361
296361
296361
296361
296361
296361
295477
295477
295477
295477
295477
295477
290022
290022
290022
290022
290022
290022
290022
290022
290022
290022
290022
290022
290022
290022
290022
290022
290022
290022
283293
283293
283293
283293
283293
283293
283293
283293
283293
283293
283293
283293
283293
283293
283293
283293
283293
283293
283293
283293
282428
282428
282428
282428
282428
282428
282428
282428
282428
282428
282428
282428
282428
282428
282428
274462
274462
274462
274462
274462
274462
273428
273428
273428
273428
273428
273428
273428
273428
273428
273428
273428
273428
273428
273428
273428
264252
264252
264252
264252
264252
264252
264252
264252
264252
264252
264252
264252
264252
260630
260630
260630
260630
260630
260630
260630
251657
251657
251657
251657
249681
249681
249681
249681
249681
249681
249681
249681
249681
249681
249681
249681
249681
241975
241975
241975
241975
241975
241975
241975
241975
241975
241975
241975
238335
238335
238335
238335
238335
238335
238335
237947
237947
237947
237947
237947
237947
237947
237947
237947
237947
237947
237947
234994
234994
234994
234994
234994
234994
234994
234994
234994
234994
234994
234994
232863
232863
232863
232863
232863
232863
232863
232863
232863
232863
232863
229764
229764
229764
229764
229764
229764
229764
229764
229764
229764
229764
229764
229764
229764
229031
229031
229031
229031
229031
229031
229031
229031
229031
229031
229031
229031
229031
229031
229031
229031
229031
229031
229031
227601
227601
227601
227601
227601
227601
227601
227601
227601
225472
225472
225472
225472
225472
225472
225472
225472
225472
225472
225472
225472
224950
224950
224950
224950
224950
224950
224950
224950
224950
224950
223068
223068
223068
223068
223068
223068
223068
223068
223068
223068
222887
222887
222887
222887
222887
222887
222887
222887
222887
222887
222887
222887
222887
221716
221716
221716
219268
219268
219268
219268
219268
219268
219268
219268
219268
219268
219268
219268
219268
219268
219268
219268
219268
219268
219268
219268
214537
214537
214537
214537
214266
214266
214266
214237
214237
214237
214237
214237
214237
214237
214237
214237
214237
214237
214237
214237
214237
214237
214237
214237
212594
212594
212594
212594
212594
212594
212594
212594
212594
212594
212594
212594
212594
212594
212594
212594
212594
212594
212594
205069
205069
205069
203116
203116
203116
203116
203116
202135
202135
202135
202135
202135
202135
202135
202135
202135
202135
202135
202135
202135
202135
202135
202135
202135
194593
194593
194593
194593
194593
194593
194593
194593
194593
194593
194593
194593
194593
194431
194431
194431
194431
194431
194431
194431
194431
194431
194431
188134
188134
188134
188134
188134
188134
188134
188134
185865
185865
185865
185865
185865
185865
185865
185865
185865
185865
185865
185865
184106
184106
184106
184106
184106
184106
184106
184106
180852
180852
180852
180852
180852
180852
180852
180852
180852
180852
180852
180852
180852
180852
180852
177755
177755
177755
177755
177755
177755
177755
177755
177755
177755
177755
177755
177755
177755
177755
177755
177755
177755
176761
176761
176761
176761
176761
176761
176761
176761
176761
176761
176761
176761
176761
176761
176761
176761
176761
176761
174929
174929
174929
174693
174693
170923
170923
170923
170923
170923
168598
168598
168598
168598
168598
168598
168338
168338
168338
168338
168338
168338
168338
168338
168338
168338
166237
166237
166237
166237
166237
166237
166237
166237
166237
166237
166237
161239
161239
161239
161239
161239
161239
161239
161239
161239
161239
161239
160566
160566
160566
160566
160566
160566
160566
160566
160566
160566
160566
160566
160566
160566
160566
158455
158455
158455
158455
158455
158455
158455
158455
158455
158455
158455
158455
158455
158455
157736
157736
157736
157736
157736
157736
157736
157736
157736
157736
157736
157736
157736
157736
157736
157736
157736
157736
157736
154824
154824
154824
154824
154824
154824
154824
154824
154824
154824
154824
154824
154824
151288
151288
151288
151288
151288
151288
151288
151288
151288
151288
151288
151288
151288
151288
151288
151288
149443
149443
149443
149443
149443
149443
149443
149443
148494
145743
145743
145743
145743
145743
145743
145743
145743
145192
145192
145192
145192
145192
145192
145192
145192
145192
145192
145192
145192
145192
145192
145192
145192
141527
141527
139374
139374
139374
139374
139374
139374
139374
139374
139374
139374
139374
136635
136635
136635
136635
136635
136635
136635
136635
136635
136635
136051
134779
134779
134779
134779
134779
134779
134779
134779
134779
134779
134779
134779
134779
131287
131287
131287
131287
131287
131287
131287
131287
131287
131287
129981
129981
129981
129981
129981
129981
129981
129981
125737
125737
125737
125737
125737
125737
125737
125737
125737
125737
125737
125737
119996
119996
119996
119996
119996
119996
119996
119996
119996
119996
119996
119996
119996
119996
119996
119996
119996
119996
119971
119971
119971
119971
119971
119971
119971
119971
119139
119139
119139
119139
119097
119097
119097
118835
118835
118835
118835
118835
118835
118835
118835
118835
118835
118835
118835
118835
112520
112520
112520
112520
112520
112520
112520
112520
112520
112520
112520
112520
112520
112520
112520
112497
112497
112497
112497
112497
112497
112497
112497
112497
112497
112497
112497
112497
112497
112497
110804
110804
110804
110804
110804
110804
110804
110804
110804
110804
110804
110804
110804
110804
110804
110203
110203
110203
110203
110203
110203
110203
110203
110203
110203
110203
110203
110203
110203
110203
110203
110203
110203
106333
106333
98444
98444
98444
98444
98240
98240
98240
97424
97424
97424
97126
97126
97126
97126
97126
97126
97126
97126
97126
97126
97126
97126
97126
97126
97126
94294
94294
90997
90997
90997
90997
90997
90997
90997
90997
90997
90997
90997
90997
90997
90997
90997
90997
90997
90997
90997
90997
87608
87608
87608
87608
87608
87608
87608
80778
80778
80778
80778
80778
80778
80778
80778
80778
80778
74627
74627
74627
74627
74627
74627
74627
74627
74627
74627
74627
74627
67872
67872
65824
65824
65824
65824
65790
65790
65790
65790
65790
65790
64423
64423
64423
64423
64423
64423
64423
64423
64423
64423
64423
64423
63976
63976
63976
63976
63428
63428
63428
63428
63428
63428
63428
63281
63281
60798
60798
60798
60798
60798
60798
57745
57745
57745
48224
48224
48224
48224
48224
48224
48224
48224
48224
48224
48224
48224
48224
48224
48224
48224
48224
48224
46319
46319
46319
46319
46319
46319
46319
46319
46319
46319
46319
46319
46319
46319
46319
46319
38701
38701
38701
38701
38701
38701
38701
38701
38701
38701
38701
38197
38197
38197
38197
38197
38197
38197
38197
38197
38197
38197
36222
36222
36222
36222
36222
36222
36222
36222
36222
36222
35795
35795
35795
35795
35795
35795
35795
35795
35795
35795
35795
35795
35795
32808
32808
32808
32808
32808
32790
32790
32790
32790
32790
32790
32790
32790
32790
32790
32790
32790
32790
30799
30799
30799
30799
30799
30799
30799
30799
30799
30799
30799
30799
30799
30799
30611
30611
25016
25016
25016
25016
25016
25016
25016
25016
25016
25016
25016
25016
25016
25016
25016
25016
25016
16658
16658
16658
14808
14808
14808
14808
14808
14808
14808
14808
14808
14808
14808
14808
14808
14808
14808
14808
14808
9960
9960
9960
9960
9960
9960
9960
9960
9960
9960
9960
9960
9960
9960
9960
9960
9960
9960
8076
8076
8076
8076
8076
8076
7902
7902
7902
7902
7902
7902
7902
7902
7902
7902
7902
7902
